15
2 0 49
3 2 40
4 0 41
5 0 54
5 1 36
5 2 38
6 0 47
6 1 37
6 2 16
6 4 18
7 5 7
7 6 16
8 0 11
8 1 31
8 2 19
8 3 23
8 4 45
8 5 52
8 6 32
9 3 33
9 4 14
9 6 45
10 0 50
10 1 21
10 2 23
10 4 36
10 5 32
10 6 15
10 7 29
11 1 1
11 5 9
11 6 30
11 7 38
11 8 42
11 9 24
12 0 6
12 2 37
12 3 45
12 5 53
12 6 27
12 7 8
12 9 36
12 10 3
13 0 41
13 1 3
13 3 8
13 6 33
13 8 37
13 9 18
13 11 27
13 12 52
14 1 36
14 2 28
14 3 48
14 5 49
14 6 24
14 13 8
